(set-logic QF_S)
(declare-fun var_0xINPUT_166600 () String)
(assert (and (= (len var_0xINPUT_166600) 0) (= (len var_0xINPUT_166600) 0) (not (= var_0xINPUT_166600 "VZCCTTfYY8"))))
(check-sat var_0xINPUT_166600)